100
27634

865 879
395 318
777 697
912 893
431 461
42 126
266 193
989 966
524 565
498 472
415 495
941 872
803 843
850 835
311 349
992 944
489 543
367 407
598 648
914 887
930 943
224 147
517 569
143 141
289 270
144 191
774 735
98 75
634 581
819 767
257 204
932 840
546 602
723 791
830 796
617 638
924 841
151 73
318 391
102 195
748 681
76 39
921 830
871 791
701 780
339 377
484 558
574 574
104 184
363 397
445 415
324 357
626 586
656 611
935 1008
210 260
990 997
566 614
489 459
454 469
887 913
534 603
267 331
64 92
825 746
941 924
562 618
938 867
15 63
96 151
737 798
861 846
409 357
728 690
845 749
804 891
685 654
641 570
2 91
627 583
506 501
848 791
889 874
342 351
250 165
748 673
334 434
721 658
892 970
65 57
196 107
940 986
582 644
228 264
245 299
823 897
991 909
146 52
823 754
557 619
